p edge 77
e 0 4
e 0 12
e 0 56
e 0 74
e 1 17
e 1 60
e 1 68
e 1 74
e 2 26
e 2 32
e 2 36
e 2 44
e 2 50
e 2 67
e 2 70
e 3 14
e 3 15
e 3 45
e 3 54
e 3 57
e 4 12
e 4 26
e 4 28
e 4 56
e 4 70
e 5 25
e 5 26
e 5 28
e 5 32
e 5 49
e 6 10
e 6 18
e 6 47
e 6 51
e 6 73
e 7 29
e 7 38
e 7 48
e 7 58
e 7 59
e 7 63
e 7 71
e 8 17
e 8 33
e 8 41
e 8 56
e 8 61
e 8 74
e 9 19
e 9 24
e 9 27
e 9 30
e 9 62
e 9 63
e 10 23
e 10 47
e 10 73
e 11 15
e 11 34
e 11 53
e 11 55
e 11 57
e 11 64
e 12 28
e 12 60
e 12 68
e 12 74
e 13 23
e 13 33
e 13 38
e 13 41
e 13 59
e 13 71
e 14 39
e 14 54
e 14 55
e 14 57
e 15 45
e 15 46
e 15 53
e 15 57
e 16 21
e 16 34
e 16 65
e 16 69
e 16 76
e 17 61
e 17 74
e 18 36
e 18 42
e 18 44
e 18 51
e 18 76
e 19 30
e 19 35
e 19 40
e 19 52
e 19 58
e 19 63
e 20 33
e 20 59
e 20 61
e 20 75
e 21 34
e 21 42
e 21 72
e 21 76
e 22 35
e 22 51
e 22 52
e 22 64
e 22 66
e 22 72
e 22 73
e 23 41
e 23 47
e 23 71
e 23 73
e 24 30
e 24 40
e 24 46
e 24 62
e 25 31
e 25 49
e 26 28
e 26 32
e 26 70
e 27 29
e 27 62
e 27 63
e 29 48
e 29 63
e 30 40
e 31 43
e 32 49
e 32 67
e 33 41
e 33 59
e 33 61
e 34 55
e 34 64
e 34 65
e 34 72
e 35 40
e 35 52
e 35 53
e 35 64
e 36 44
e 36 47
e 36 70
e 37 44
e 37 50
e 37 69
e 38 59
e 38 71
e 39 55
e 39 65
e 40 46
e 40 53
e 41 47
e 41 56
e 42 51
e 42 72
e 42 76
e 44 50
e 44 69
e 44 76
e 45 46
e 46 53
e 47 56
e 47 70
e 48 59
e 48 75
e 49 67
e 50 67
e 51 72
e 51 73
e 52 58
e 52 66
e 52 71
e 53 64
e 55 57
e 55 65
e 56 70
e 56 74
e 58 63
e 58 71
e 59 75
e 60 68
e 60 74
e 64 72
e 66 71
e 66 73
e 69 76
e 71 73
c k 5
